GLPSOL: GLPK LP/MIP Solver, v4.65
Parameter(s) specified in the command line:
 --math run.mod
Reading model section from run.mod...
(unknown):0: unable to open run.mod - No such file or directory
Context:                                                             
MathProg model processing error
